
************************************************************
 TOWR - Trajectory Optimization for Walking Robots (v1.4)
                © Alexander W. Winkler
           https://github.com/ethz-adrl/towr
************************************************************

0.504
4.561412003533202e-59
0.2
0
0
0.24
0
0
0
t
-e1
0.21
value fo cmd_return -> t -e1 0.21
next line
0.21
0.19
0.0
0.21
-0.19
0.0
-0.21
0.19
0.0
-0.21
-0.19
0.0
0.01
ee start pos x -> 0.21
ee start pos y -> 0.19
ee start pos z -> 0
ee start pos x -> 0.21
ee start pos y -> -0.19
ee start pos z -> 0
ee start pos x -> -0.21
ee start pos y -> 0.19
ee start pos z -> 0
ee start pos x -> -0.21
ee start pos y -> -0.19
ee start pos z -> 0
start pos x -> 0
start pos y -> 0
start pos z -> 0.24
goal pos x -> 0.504
goal pos y -> 4.56141e-59
goal pos z -> 0.2
ee start pos x -> 0.21
ee start pos y -> 0.19
ee start pos z -> 0
ee start pos x -> 0.21
ee start pos y -> -0.19
ee start pos z -> 0
ee start pos x -> -0.21
ee start pos y -> 0.19
ee start pos z -> 0
ee start pos x -> -0.21
ee start pos y -> -0.19
ee start pos z -> 0
SOLVER RUN TIME : 15

******************************************************************************
This program contains Ipopt, a library for large-scale nonlinear optimization.
 Ipopt is released as open source code under the Eclipse Public License (EPL).
         For more information visit http://projects.coin-or.org/Ipopt
******************************************************************************

This is Ipopt version 3.11.9, running with linear solver mumps.
NOTE: Other linear solvers might be more efficient (see Ipopt documentation).

Number of nonzeros in equality constraint Jacobian...:    11557
Number of nonzeros in inequality constraint Jacobian.:    20605
Number of nonzeros in Lagrangian Hessian.............:        0

Total number of variables............................:     1005
                     variables with only lower bounds:        0
                variables with lower and upper bounds:        0
                     variables with only upper bounds:        0
Total number of equality constraints.................:      706
Total number of inequality constraints...............:     1024
        inequality constraints with only lower bounds:      112
   inequality constraints with lower and upper bounds:      816
        inequality constraints with only upper bounds:       96

iter    objective    inf_pr   inf_du lg(mu)  ||d||  lg(rg) alpha_du alpha_pr  ls
   0  0.0000000e+00 9.71e+00 1.00e+00   0.0 0.00e+00    -  0.00e+00 0.00e+00   0
   1  0.0000000e+00 8.14e+00 1.32e+01  -0.2 4.82e+00    -  3.85e-01 1.62e-01f  1
   2  0.0000000e+00 6.44e+00 4.44e+01   0.3 7.53e+00    -  9.93e-01 2.09e-01f  1
   3  0.0000000e+00 3.55e-01 1.59e+02   0.4 5.85e+00    -  5.68e-01 1.00e+00f  1
   4  0.0000000e+00 5.88e-03 7.69e+00  -0.0 6.02e-01    -  9.97e-01 1.00e+00f  1
   5  0.0000000e+00 5.79e-06 9.49e-01  -2.1 6.84e-02    -  9.88e-01 1.00e+00h  1
   6  0.0000000e+00 1.08e-06 9.45e-04  -3.6 1.18e-02    -  1.00e+00 1.00e+00h  1
   7  0.0000000e+00 2.86e-11 1.33e-05  -9.6 1.37e-06    -  9.99e-01 1.00e+00h  1

Number of Iterations....: 7

                                   (scaled)                 (unscaled)
Objective...............:   0.0000000000000000e+00    0.0000000000000000e+00
Dual infeasibility......:   1.3349125988314013e-05    1.3349125988314013e-05
Constraint violation....:   1.5208378965568678e-11    2.8643754035329039e-11
Complementarity.........:   2.8382691073700049e-07    2.8382691073700049e-07
Overall NLP error.......:   1.3349125988314013e-05    1.3349125988314013e-05


Number of objective function evaluations             = 8
Number of objective gradient evaluations             = 8
Number of equality constraint evaluations            = 8
Number of inequality constraint evaluations          = 8
Number of equality constraint Jacobian evaluations   = 8
Number of inequality constraint Jacobian evaluations = 8
Number of Lagrangian Hessian evaluations             = 0
Total CPU secs in IPOPT (w/o function evaluations)   =      0.299
Total CPU secs in NLP function evaluations           =      0.439

EXIT: Optimal Solution Found.
status -> 0

************************************************************
    IFOPT - Interface to Nonlinear Optimizers (v2.0)
                © Alexander W. Winkler
           https://github.com/ethz-adrl/ifopt
************************************************************
Legend:
c - number of variables, constraints or cost terms
i - indices of this set in overall problem
v - number of [violated variable- or constraint-bounds] or [cost term value]

                                   c             i             v 
variable-sets:
   base-lin                       306        0....305[0m           0[0m
   base-ang                       306      306....611[0m           0[0m
   ee-motion_0                     35      612....646[0m           0[0m
   ee-motion_1                     35      647....681[0m           0[0m
   ee-motion_2                     35      682....716[0m           0[0m
   ee-motion_3                     35      717....751[0m           0[0m
   ee-force_0                      72      752....823[0m           0[0m
   ee-force_1                      72      824....895[0m           0[0m
   ee-force_2                      72      896....967[0m           0[0m
   ee-force_3                      72      968...1039[0m           0[0m

constraint-sets:
   terrain-ee-motion_0             13        0.....12[0m           0[0m
   terrain-ee-motion_1             13       13.....25[0m           0[0m
   terrain-ee-motion_2             13       26.....38[0m           0[0m
   terrain-ee-motion_3             13       39.....51[0m           0[0m
   dynamic                        312       52....363[0m           0[0m
   splineacc-base-lin             147      364....510[0m           0[0m
   splineacc-base-ang             147      511....657[0m           0[0m
   rangeofmotion-0                192      658....849[0m           0[0m
   rangeofmotion-1                192      850...1041[0m           0[0m
   rangeofmotion-2                192     1042...1233[0m           0[0m
   rangeofmotion-3                192     1234...1425[0m           0[0m
   force-ee-force_0                60     1426...1485[0m           0[0m
   force-ee-force_1                60     1486...1545[0m           0[0m
   force-ee-force_2                60     1546...1605[0m           0[0m
   force-ee-force_3                60     1606...1665[0m           0[0m
   swing-ee-motion_0               16     1666...1681[0m           0[0m
   swing-ee-motion_1               16     1682...1697[0m           0[0m
   swing-ee-motion_2               16     1698...1713[0m           0[0m
   swing-ee-motion_3               16     1714...1729[0m           0[0m

cost-terms:


************************************************************
 TOWR - Trajectory Optimization for Walking Robots (v1.4)
                © Alexander W. Winkler
           https://github.com/ethz-adrl/towr
************************************************************

0.8820000000000002
0.0
0.2605377402029069
0.30139
-0.0102661
0.254779
0.00491525
-0.129791
-0.0130846
t
-e1
0.534908
value fo cmd_return -> t -e1 0.534908
next line
0.534908
0.150332
0.0501196
0.583982
-0.184805
0.0489509
0.0925181
0.17744
0
0.130116
-0.169178
0
3.75
s_vel
0.120816
0.01
-t
3.75
ee start pos x -> 0.534908
ee start pos y -> 0.150332
ee start pos z -> 0.0501196
ee start pos x -> 0.583982
ee start pos y -> -0.184805
ee start pos z -> 0.0489509
ee start pos x -> 0.0925181
ee start pos y -> 0.17744
ee start pos z -> 0
ee start pos x -> 0.130116
ee start pos y -> -0.169178
ee start pos z -> 0
start pos x -> 0.30139
start pos y -> -0.0102661
start pos z -> 0.254779
goal pos x -> 0.882
goal pos y -> 0
goal pos z -> 0.260538
ee start pos x -> 0.534908
ee start pos y -> 0.150332
ee start pos z -> 0.0501196
ee start pos x -> 0.583982
ee start pos y -> -0.184805
ee start pos z -> 0.0489509
ee start pos x -> 0.0925181
ee start pos y -> 0.17744
ee start pos z -> 0
ee start pos x -> 0.130116
ee start pos y -> -0.169178
ee start pos z -> 0
SOLVER RUN TIME : 15

******************************************************************************
This program contains Ipopt, a library for large-scale nonlinear optimization.
 Ipopt is released as open source code under the Eclipse Public License (EPL).
         For more information visit http://projects.coin-or.org/Ipopt
******************************************************************************

This is Ipopt version 3.11.9, running with linear solver mumps.
NOTE: Other linear solvers might be more efficient (see Ipopt documentation).

Number of nonzeros in equality constraint Jacobian...:    11557
Number of nonzeros in inequality constraint Jacobian.:    20605
Number of nonzeros in Lagrangian Hessian.............:        0

Total number of variables............................:     1005
                     variables with only lower bounds:        0
                variables with lower and upper bounds:        0
                     variables with only upper bounds:        0
Total number of equality constraints.................:      706
Total number of inequality constraints...............:     1024
        inequality constraints with only lower bounds:      112
   inequality constraints with lower and upper bounds:      816
        inequality constraints with only upper bounds:       96

iter    objective    inf_pr   inf_du lg(mu)  ||d||  lg(rg) alpha_du alpha_pr  ls
   0  0.0000000e+00 9.71e+00 1.00e+00   0.0 0.00e+00    -  0.00e+00 0.00e+00   0
   1  0.0000000e+00 8.81e+00 4.47e+01   0.1 4.97e+00    -  4.27e-01 9.31e-02f  1
   2  0.0000000e+00 5.16e+00 4.69e+01   0.4 6.38e+00    -  9.93e-01 4.14e-01f  1
   3  0.0000000e+00 2.25e-01 1.14e+02   0.3 4.44e+00    -  7.20e-01 1.00e+00f  1
   4  0.0000000e+00 1.72e-03 1.63e+00  -0.2 3.13e-01    -  1.00e+00 1.00e+00f  1
   5  0.0000000e+00 7.08e-04 3.78e-01  -6.2 9.40e-03    -  9.86e-01 1.00e+00h  1
   6  0.0000000e+00 7.08e-04 3.46e-03  -8.1 1.68e-04    -  9.90e-01 1.00e+00h  1
   7  0.0000000e+00 7.08e-04 2.45e-06 -10.1 1.35e-04    -  9.99e-01 9.99e-01s 22
   8  0.0000000e+00 2.11e-01 1.44e-04  -7.3 1.40e+02    -  7.03e-01 1.00e+00h  1
   9  0.0000000e+00 1.57e-02 1.26e-04  -7.3 2.18e-01  -4.0 1.00e+00 1.00e+00h  1
iter    objective    inf_pr   inf_du lg(mu)  ||d||  lg(rg) alpha_du alpha_pr  ls
  10  0.0000000e+00 5.62e-03 1.15e-05  -7.3 1.76e+01    -  1.00e+00 1.00e+00h  1
  11  0.0000000e+00 8.79e-02 1.22e-06  -7.3 1.12e+02    -  1.00e+00 1.00e+00h  1
  12  0.0000000e+00 1.13e-02 9.95e-07  -7.3 3.72e+01    -  1.00e+00 1.00e+00h  1
  13  0.0000000e+00 1.02e-03 8.46e-07  -7.3 9.10e+00    -  1.00e+00 1.00e+00h  1
  14  0.0000000e+00 7.08e-04 7.19e-07  -7.3 6.66e+00    -  1.00e+00 1.00e+00h  1
  15  0.0000000e+00 7.08e-04 1.36e-04  -7.3 1.62e-04    -  1.00e+00 1.00e+00h  1
  16  0.0000000e+00 7.08e-04 1.23e-08  -7.3 1.35e-06    -  1.00e+00 1.00e+00h  1
  17r 0.0000000e+00 7.08e-04 9.99e+02  -3.1 0.00e+00    -  0.00e+00 4.77e-07R 22
  18r 0.0000000e+00 7.08e-04 2.43e-06  -5.0 3.36e-06    -  1.00e+00 9.86e-01f  1
  19r 0.0000000e+00 7.08e-04 3.14e+00  -5.4 7.62e-04    -  1.00e+00 9.95e-01f  1
Restoration phase converged to a feasible point that is
unacceptable to the filter for the original problem.
Restoration phase in the restoration phase failed.

Number of Iterations....: 19

                                   (scaled)                 (unscaled)
Objective...............:   0.0000000000000000e+00    0.0000000000000000e+00
Dual infeasibility......:   1.1978789101450021e-07    1.1978789101450021e-07
Constraint violation....:   7.0804374806719000e-04    7.0804374806719000e-04
Complementarity.........:   1.3436367588079024e-07    1.3436367588079024e-07
Overall NLP error.......:   7.0804374806719000e-04    7.0804374806719000e-04


Number of objective function evaluations             = 64
Number of objective gradient evaluations             = 19
Number of equality constraint evaluations            = 64
Number of inequality constraint evaluations          = 64
Number of equality constraint Jacobian evaluations   = 22
Number of inequality constraint Jacobian evaluations = 22
Number of Lagrangian Hessian evaluations             = 0
Total CPU secs in IPOPT (w/o function evaluations)   =      0.674
Total CPU secs in NLP function evaluations           =      1.302

EXIT: Restoration Failed!
status -> -2

************************************************************
    IFOPT - Interface to Nonlinear Optimizers (v2.0)
                © Alexander W. Winkler
           https://github.com/ethz-adrl/ifopt
************************************************************
Legend:
c - number of variables, constraints or cost terms
i - indices of this set in overall problem
v - number of [violated variable- or constraint-bounds] or [cost term value]

                                   c             i             v 
variable-sets:
   base-lin                       306        0....305[0m           0[0m
   base-ang                       306      306....611[0m           0[0m
   ee-motion_0                     35      612....646[0m           0[0m
   ee-motion_1                     35      647....681[0m           0[0m
   ee-motion_2                     35      682....716[0m           0[0m
   ee-motion_3                     35      717....751[0m           0[0m
   ee-force_0                      72      752....823[0m           0[0m
   ee-force_1                      72      824....895[0m           0[0m
   ee-force_2                      72      896....967[0m           0[0m
   ee-force_3                      72      968...1039[0m           0[0m

constraint-sets:
   terrain-ee-motion_0             13        0.....12[0m           0[0m
ERROR: Ipopt failed to find a solution. Return Code: -2
   terrain-ee-motion_1             13       13.....25[0m           0[0m
   terrain-ee-motion_2             13       26.....38[0m           0[0m
   terrain-ee-motion_3             13       39.....51[0m           0[0m
   dynamic                        312       52....363[0m           0[0m
   splineacc-base-lin             147      364....510[0m           0[0m
   splineacc-base-ang             147      511....657[0m           0[0m
   rangeofmotion-0                192      658....849[0m           0[0m
   rangeofmotion-1                192      850...1041[0m           0[0m
   rangeofmotion-2                192     1042...1233[0m           0[0m
   rangeofmotion-3                192     1234...1425[0m           0[0m
   force-ee-force_0                60     1426...1485[0m           0[0m
   force-ee-force_1                60     1486...1545[0m           0[0m
   force-ee-force_2                60     1546...1605[0m           0[0m
   force-ee-force_3                60     1606...1665[0m           0[0m
   swing-ee-motion_0               16     1666...1681[0m           0[0m
   swing-ee-motion_1               16     1682...1697[0m           0[0m
   swing-ee-motion_2               16     1698...1713[0m           0[0m
   swing-ee-motion_3               16     1714...1729[0m           0[0m

cost-terms:

